DIMACS2
40 76 236 245 95 158 205 308 240 125 220 147 290 93 112 196 168 159 254 70 15 232 310 224 69 171 237 165 251 227 84 137 249 80 62 182 157 155 13 292 172
p edge 320 2516
e 0 223 1.0
e 0 11 1.0
e 0 150 1.0
e 0 131 1.0
e 0 113 1.0
e 0 14 2.0
e 0 120 1.0
e 0 158 44.0
e 1 256 1.0
e 1 52 1.0
e 1 22 1.0
e 1 122 1.0
e 1 15 5.0
e 1 216 1.0
e 1 29 1.0
e 1 192 1.0
e 2 146 1.0
e 2 172 36.0
e 2 294 1.0
e 2 103 1.0
e 2 256 1.0
e 2 8 2.0
e 2 240 27.0
e 2 135 2.0
e 3 85 1.0
e 3 143 1.0
e 3 10 1.0
e 3 57 1.0
e 3 272 1.0
e 3 92 3.0
e 3 242 1.0
e 3 221 1.0
e 4 152 1.0
e 4 76 14.0
e 4 134 2.0
e 4 172 30.0
e 4 212 1.0
e 4 38 1.0
e 4 74 2.0
e 4 182 16.0
e 5 246 2.0
e 5 89 1.0
e 5 182 41.0
e 5 139 1.0
e 5 154 1.0
e 5 96 1.0
e 5 99 1.0
e 5 296 1.0
e 6 72 2.0
e 6 219 2.0
e 6 0 1.0
e 6 135 1.0
e 6 157 18.0
e 6 55 1.0
e 6 50 1.0
e 6 148 2.0
e 7 205 49.0
e 7 73 1.0
e 7 140 1.0
e 7 88 1.0
e 7 91 1.0
e 7 285 1.0
e 7 143 1.0
e 7 90 1.0
e 8 235 1.0
e 8 124 2.0
e 8 178 1.0
e 8 173 2.0
e 8 77 1.0
e 8 72 1.0
e 8 109 3.0
e 8 161 2.0
e 9 202 1.0
e 9 58 2.0
e 9 194 1.0
e 9 116 1.0
e 9 97 1.0
e 9 242 1.0
e 9 75 1.0
e 9 164 1.0
e 10 112 37.0
e 10 313 1.0
e 10 55 1.0
e 10 115 1.0
e 10 4 1.0
e 10 33 1.0
e 10 51 1.0
e 10 305 1.0
e 11 38 1.0
e 11 261 1.0
e 11 28 2.0
e 11 267 1.0
e 11 196 29.0
e 11 15 20.0
e 11 90 1.0
e 11 60 1.0
e 12 144 2.0
e 12 270 1.0
e 12 276 1.0
e 12 178 1.0
e 12 6 2.0
e 12 189 1.0
e 12 162 1.0
e 12 103 1.0
e 13 277 23.0
e 13 40 42.0
e 13 89 42.0
e 13 160 38.0
e 13 51 28.0
e 13 87 26.0
e 13 119 23.0
e 13 262 37.0
e 14 93 22.0
e 14 314 3.0
e 14 200 1.0
e 14 270 1.0
e 14 294 1.0
e 14 264 2.0
e 14 141 2.0
e 14 60 1.0
e 15 39 12.0
e 15 57 25.0
e 15 138 18.0
e 15 186 13.0
e 15 195 44.0
e 15 19 8.0
e 15 229 21.0
e 15 160 9.0
e 16 223 2.0
e 16 177 2.0
e 16 133 1.0
e 16 105 1.0
e 16 277 1.0
e 16 76 9.0
e 16 225 1.0
e 16 144 2.0
e 17 144 2.0
e 17 316 1.0
e 17 242 1.0
e 17 91 1.0
e 17 282 1.0
e 17 88 1.0
e 17 314 1.0
e 17 304 1.0
e 18 108 2.0
e 18 17 1.0
e 18 234 2.0
e 18 231 1.0
e 18 122 2.0
e 18 83 2.0
e 18 87 1.0
e 18 75 1.0
e 19 184 2.0
e 19 105 1.0
e 19 48 1.0
e 19 159 7.0
e 19 99 1.0
e 19 237 6.0
e 19 76 48.0
e 19 156 1.0
e 20 147 21.0
e 20 229 2.0
e 20 99 1.0
e 20 214 1.0
e 20 259 1.0
e 20 318 1.0
e 20 76 33.0
e 21 41 1.0
e 21 40 1.0
e 21 24 1.0
e 21 234 1.0
e 21 190 1.0
e 21 66 1.0
e 21 303 1.0
e 21 197 1.0
e 22 96 1.0
e 22 3 1.0
e 22 100 1.0
e 22 204 1.0
e 22 257 1.0
e 22 245 11.0
e 22 153 1.0
e 23 245 7.0
e 23 193 2.0
e 23 304 1.0
e 23 246 1.0
e 23 128 2.0
e 23 168 46.0
e 23 214 1.0
e 23 175 1.0
e 24 77 1.0
e 24 8 2.0
e 24 268 1.0
e 24 110 1.0
e 24 61 1.0
e 24 251 47.0
e 24 151 1.0
e 24 309 1.0
e 25 170 1.0
e 25 109 1.0
e 25 99 1.0
e 25 240 40.0
e 25 102 1.0
e 25 178 1.0
e 25 9 1.0
e 25 292 27.0
e 26 195 1.0
e 26 143 2.0
e 26 208 2.0
e 26 40 1.0
e 26 63 2.0
e 26 53 1.0
e 26 102 2.0
e 26 165 30.0
e 27 163 1.0
e 27 33 1.0
e 27 47 1.0
e 27 256 1.0
e 27 214 1.0
e 27 153 1.0
e 27 24 1.0
e 27 132 1.0
e 28 213 1.0
e 28 144 2.0
e 28 23 2.0
e 28 9 1.0
e 28 20 2.0
e 28 82 2.0
e 28 93 21.0
e 28 77 1.0
e 29 169 1.0
e 29 177 1.0
e 29 121 1.0
e 29 154 1.0
e 29 147 1.0
e 29 215 1.0
e 29 217 1.0
e 29 27 1.0
e 30 197 2.0
e 30 167 1.0
e 30 25 1.0
e 30 28 2.0
e 30 317 2.0
e 30 170 1.0
e 30 247 2.0
e 30 241 1.0
e 31 66 1.0
e 31 178 1.0
e 31 16 2.0
e 31 148 1.0
e 31 84 46.0
e 31 267 1.0
e 31 282 1.0
e 31 37 1.0
e 32 180 1.0
e 32 106 1.0
e 32 232 33.0
e 32 233 1.0
e 32 46 1.0
e 32 186 1.0
e 32 132 1.0
e 32 99 1.0
e 33 39 1.0
e 33 263 1.0
e 33 247 1.0
e 33 298 1.0
e 33 59 1.0
e 33 161 1.0
e 33 108 1.0
e 33 46 2.0
e 34 224 34.0
e 34 242 1.0
e 34 124 2.0
e 34 67 2.0
e 34 302 2.0
e 34 199 1.0
e 34 2 1.0
e 34 221 1.0
e 35 161 1.0
e 35 74 2.0
e 35 102 1.0
e 35 71 1.0
e 35 208 1.0
e 35 113 1.0
e 35 110 1.0
e 35 62 23.0
e 36 2 2.0
e 36 236 30.0
e 36 169 1.0
e 36 185 1.0
e 36 16 1.0
e 36 306 2.0
e 36 152 2.0
e 36 243 1.0
e 37 51 1.0
e 37 172 40.0
e 37 175 1.0
e 37 257 1.0
e 37 52 1.0
e 37 134 1.0
e 37 195 1.0
e 37 311 1.0
e 38 301 1.0
e 38 98 2.0
e 38 211 2.0
e 38 25 2.0
e 38 230 2.0
e 38 248 1.0
e 38 129 1.0
e 38 142 1.0
e 39 169 1.0
e 39 93 15.0
e 39 131 1.0
e 39 166 1.0
e 39 195 1.0
e 39 184 2.0
e 39 4 1.0
e 39 208 1.0
e 40 82 1.0
e 40 92 2.0
e 40 34 1.0
e 40 186 1.0
e 40 303 1.0
e 40 220 12.0
e 40 91 1.0
e 40 185 1.0
e 41 174 1.0
e 41 193 1.0
e 41 56 1.0
e 41 198 2.0
e 41 295 1.0
e 41 109 2.0
e 41 13 19.0
e 41 47 1.0
e 42 264 1.0
e 42 287 1.0
e 42 198 1.0
e 42 191 1.0
e 42 262 1.0
e 42 176 1.0
e 42 272 1.0
e 42 71 1.0
e 43 76 48.0
e 43 115 1.0
e 43 202 1.0
e 43 112 14.0
e 43 214 1.0
e 43 46 1.0
e 43 83 1.0
e 43 61 1.0
e 44 58 1.0
e 44 230 1.0
e 44 217 1.0
e 44 157 22.0
e 44 13 17.0
e 44 262 1.0
e 44 55 3.0
e 44 85 1.0
e 45 188 2.0
e 45 209 1.0
e 45 104 1.0
e 45 167 2.0
e 45 183 1.0
e 45 75 2.0
e 45 141 2.0
e 45 187 1.0
e 46 160 1.0
e 46 109 2.0
e 46 21 1.0
e 46 209 2.0
e 46 268 2.0
e 46 163 2.0
e 46 92 1.0
e 46 98 1.0
e 47 178 1.0
e 47 90 1.0
e 47 240 47.0
e 47 185 1.0
e 47 259 1.0
e 47 227 39.0
e 47 258 1.0
e 47 82 1.0
e 48 264 1.0
e 48 275 1.0
e 48 310 15.0
e 48 261 1.0
e 48 127 2.0
e 48 130 1.0
e 48 300 1.0
e 48 302 1.0
e 49 228 1.0
e 49 189 1.0
e 49 223 1.0
e 49 250 1.0
e 49 52 1.0
e 49 146 2.0
e 49 257 2.0
e 49 74 1.0
e 50 162 2.0
e 50 217 2.0
e 50 250 1.0
e 50 8 2.0
e 50 189 2.0
e 50 286 1.0
e 50 23 2.0
e 50 3 1.0
e 51 145 1.0
e 51 277 1.0
e 51 172 33.0
e 51 293 1.0
e 51 122 1.0
e 51 133 1.0
e 51 271 1.0
e 51 210 1.0
e 52 31 1.0
e 52 317 1.0
e 52 91 1.0
e 52 108 1.0
e 52 170 1.0
e 52 162 1.0
e 52 228 1.0
e 52 247 1.0
e 53 98 1.0
e 53 62 21.0
e 53 250 1.0
e 53 273 1.0
e 53 116 1.0
e 53 279 1.0
e 53 20 1.0
e 53 77 2.0
e 54 55 2.0
e 54 299 1.0
e 54 70 29.0
e 54 168 9.0
e 54 309 1.0
e 54 98 1.0
e 54 279 2.0
e 54 25 1.0
e 55 126 1.0
e 55 48 1.0
e 55 168 28.0
e 55 108 1.0
e 55 85 3.0
e 55 185 1.0
e 55 90 1.0
e 56 84 43.0
e 56 186 1.0
e 56 168 27.0
e 56 245 37.0
e 56 182 42.0
e 56 164 1.0
e 56 231 1.0
e 56 215 1.0
e 57 296 1.0
e 57 213 1.0
e 57 113 2.0
e 57 140 1.0
e 57 155 43.0
e 57 177 1.0
e 57 133 2.0
e 58 230 1.0
e 58 178 1.0
e 58 96 2.0
e 58 26 1.0
e 58 74 1.0
e 58 182 14.0
e 58 22 2.0
e 58 35 1.0
e 59 132 1.0
e 59 315 1.0
e 59 224 29.0
e 59 256 2.0
e 59 191 1.0
e 59 316 1.0
e 59 215 1.0
e 59 138 1.0
e 60 183 1.0
e 60 20 1.0
e 60 105 2.0
e 60 197 3.0
e 60 79 1.0
e 60 284 1.0
e 60 232 13.0
e 60 225 1.0
e 61 122 1.0
e 61 178 1.0
e 61 66 1.0
e 61 147 23.0
e 61 248 1.0
e 61 59 1.0
e 61 290 4.0
e 61 192 1.0
e 62 143 20.0
e 62 32 39.0
e 62 214 31.0
e 62 17 27.0
e 62 242 14.0
e 62 2 21.0
e 62 223 8.0
e 63 288 2.0
e 63 277 2.0
e 63 134 2.0
e 63 20 1.0
e 63 116 1.0
e 63 142 2.0
e 63 177 1.0
e 63 188 2.0
e 64 110 1.0
e 64 8 1.0
e 64 149 1.0
e 64 161 1.0
e 64 247 1.0
e 64 173 1.0
e 64 200 1.0
e 64 239 1.0
e 65 14 1.0
e 65 125 13.0
e 65 210 1.0
e 65 241 1.0
e 65 28 1.0
e 65 20 1.0
e 65 169 2.0
e 65 129 1.0
e 66 82 1.0
e 66 189 1.0
e 66 240 2.0
e 66 157 4.0
e 66 295 1.0
e 66 269 1.0
e 66 201 1.0
e 67 129 1.0
e 67 214 1.0
e 67 80 10.0
e 67 53 1.0
e 67 309 1.0
e 67 253 1.0
e 67 175 1.0
e 67 257 1.0
e 68 263 1.0
e 68 139 1.0
e 68 237 37.0
e 68 223 1.0
e 68 174 1.0
e 68 202 2.0
e 68 244 1.0
e 68 260 3.0
e 69 256 7.0
e 69 288 45.0
e 69 193 7.0
e 69 285 38.0
e 69 248 1.0
e 69 156 2.0
e 69 68 44.0
e 69 277 47.0
e 70 81 34.0
e 70 155 9.0
e 70 173 46.0
e 70 179 44.0
e 70 110 9.0
e 70 248 19.0
e 70 311 33.0
e 70 67 31.0
e 71 11 1.0
e 71 205 39.0
e 71 123 1.0
e 71 318 2.0
e 71 194 1.0
e 71 212 1.0
e 71 62 4.0
e 71 40 1.0
e 72 280 2.0
e 72 78 1.0
e 72 258 1.0
e 72 28 2.0
e 72 238 1.0
e 72 113 2.0
e 72 128 2.0
e 72 121 1.0
e 73 179 1.0
e 73 219 1.0
e 73 311 1.0
e 73 49 1.0
e 73 111 1.0
e 73 25 1.0
e 73 28 2.0
e 73 121 1.0
e 74 115 2.0
e 74 207 1.0
e 74 298 2.0
e 74 217 2.0
e 74 215 1.0
e 74 156 1.0
e 74 110 2.0
e 74 185 2.0
e 75 192 1.0
e 75 118 2.0
e 75 312 1.0
e 75 53 1.0
e 75 95 48.0
e 75 99 1.0
e 75 43 1.0
e 75 122 1.0
e 76 33 28.0
e 76 114 27.0
e 76 24 32.0
e 76 119 31.0
e 76 129 47.0
e 76 30 45.0
e 76 68 10.0
e 76 100 2.0
e 77 1 1.0
e 77 144 1.0
e 77 152 2.0
e 77 84 41.0
e 77 4 2.0
e 77 256 1.0
e 77 280 1.0
e 77 97 2.0
e 78 219 1.0
e 78 69 38.0
e 78 19 1.0
e 78 145 1.0
e 78 124 1.0
e 78 260 2.0
e 78 114 1.0
e 78 167 1.0
e 79 246 1.0
e 79 88 1.0
e 79 106 1.0
e 79 114 1.0
e 79 125 22.0
e 79 142 1.0
e 79 1 1.0
e 80 150 3.0
e 80 120 28.0
e 80 104 30.0
e 80 230 23.0
e 80 31 8.0
e 80 307 9.0
e 80 303 45.0
e 80 48 36.0
e 81 92 2.0
e 81 115 2.0
e 81 114 1.0
e 81 192 1.0
e 81 301 2.0
e 81 191 1.0
e 81 97 1.0
e 81 48 1.0
e 82 186 1.0
e 82 172 48.0
e 82 168 7.0
e 82 294 1.0
e 82 43 1.0
e 82 188 1.0
e 82 12 1.0
e 82 94 1.0
e 83 147 3.0
e 83 30 2.0
e 83 142 1.0
e 83 79 1.0
e 83 127 1.0
e 83 300 1.0
e 83 158 9.0
e 83 153 1.0
e 84 314 48.0
e 84 217 42.0
e 84 109 1.0
e 84 305 47.0
e 84 3 10.0
e 84 12 42.0
e 84 39 44.0
e 84 310 37.0
e 85 209 1.0
e 85 310 6.0
e 85 40 1.0
e 85 173 1.0
e 85 39 1.0
e 85 125 41.0
e 85 179 1.0
e 85 296 1.0
e 86 224 4.0
e 86 96 1.0
e 86 211 1.0
e 86 9 1.0
e 86 17 1.0
e 86 287 1.0
e 86 112 6.0
e 86 164 1.0
e 87 3 1.0
e 87 278 1.0
e 87 209 1.0
e 87 301 1.0
e 87 99 1.0
e 87 147 1.0
e 87 306 1.0
e 87 74 1.0
e 88 196 37.0
e 88 290 28.0
e 88 74 2.0
e 88 267 1.0
e 88 220 5.0
e 88 78 1.0
e 88 177 1.0
e 88 1 1.0
e 89 195 1.0
e 89 81 1.0
e 89 0 1.0
e 89 170 1.0
e 89 295 1.0
e 89 109 1.0
e 89 277 1.0
e 89 53 1.0
e 90 285 1.0
e 90 127 1.0
e 90 211 1.0
e 90 116 1.0
e 90 8 2.0
e 90 71 1.0
e 90 136 1.0
e 90 137 28.0
e 91 316 1.0
e 91 317 1.0
e 91 108 1.0
e 91 3 1.0
e 91 283 1.0
e 91 92 1.0
e 91 284 1.0
e 92 280 1.0
e 92 256 1.0
e 92 160 1.0
e 92 309 1.0
e 92 278 1.0
e 92 221 1.0
e 92 187 2.0
e 92 132 2.0
e 93 230 26.0
e 93 176 11.0
e 93 79 4.0
e 93 126 18.0
e 93 78 17.0
e 93 268 41.0
e 93 222 41.0
e 93 53 7.0
e 94 313 1.0
e 94 101 1.0
e 94 230 1.0
e 94 147 33.0
e 94 70 11.0
e 94 287 1.0
e 94 79 1.0
e 94 300 1.0
e 95 205 47.0
e 95 10 33.0
e 95 125 27.0
e 95 93 36.0
e 95 137 16.0
e 95 38 25.0
e 95 1 36.0
e 95 110 39.0
e 96 317 1.0
e 96 155 14.0
e 96 242 1.0
e 96 18 1.0
e 96 287 1.0
e 96 83 1.0
e 96 254 1.0
e 96 175 1.0
e 97 206 1.0
e 97 201 1.0
e 97 311 1.0
e 97 95 26.0
e 97 14 1.0
e 97 240 22.0
e 97 32 1.0
e 97 178 1.0
e 98 131 1.0
e 98 136 1.0
e 98 10 1.0
e 98 164 1.0
e 98 160 1.0
e 98 52 1.0
e 98 188 1.0
e 98 122 1.0
e 99 297 1.0
e 99 233 1.0
e 99 220 11.0
e 99 284 1.0
e 99 114 1.0
e 99 141 1.0
e 99 309 1.0
e 99 246 2.0
e 100 124 2.0
e 100 168 4.0
e 100 254 17.0
e 100 193 1.0
e 100 110 1.0
e 100 28 2.0
e 100 224 6.0
e 100 131 1.0
e 101 95 37.0
e 101 246 3.0
e 101 97 1.0
e 101 146 1.0
e 101 120 1.0
e 101 135 1.0
e 101 132 1.0
e 101 40 1.0
e 102 0 1.0
e 102 146 1.0
e 102 29 1.0
e 102 305 2.0
e 102 63 1.0
e 102 112 30.0
e 102 243 1.0
e 102 189 1.0
e 103 126 2.0
e 103 196 34.0
e 103 132 1.0
e 103 31 1.0
e 103 122 2.0
e 103 83 1.0
e 103 185 2.0
e 103 216 1.0
e 104 97 1.0
e 104 219 1.0
e 104 152 1.0
e 104 151 1.0
e 104 157 18.0
e 104 88 1.0
e 104 84 1.0
e 104 265 1.0
e 105 268 1.0
e 105 81 2.0
e 105 306 1.0
e 105 107 1.0
e 105 218 1.0
e 105 217 1.0
e 105 209 1.0
e 105 58 1.0
e 106 76 21.0
e 106 222 1.0
e 106 26 1.0
e 106 210 1.0
e 106 214 1.0
e 106 252 1.0
e 106 249 13.0
e 106 291 1.0
e 107 302 1.0
e 107 55 1.0
e 107 104 1.0
e 107 48 1.0
e 107 150 1.0
e 107 303 1.0
e 107 26 1.0
e 107 222 1.0
e 108 274 3.0
e 108 70 45.0
e 108 170 1.0
e 108 119 1.0
e 108 153 1.0
e 108 234 1.0
e 108 81 2.0
e 108 196 15.0
e 109 184 1.0
e 109 143 1.0
e 109 164 1.0
e 109 33 2.0
e 109 161 2.0
e 109 124 2.0
e 109 127 3.0
e 109 270 1.0
e 110 182 1.0
e 110 4 1.0
e 110 147 8.0
e 110 81 1.0
e 110 25 1.0
e 110 30 1.0
e 111 157 15.0
e 111 15 21.0
e 111 155 30.0
e 111 6 1.0
e 111 93 29.0
e 111 141 1.0
e 111 242 1.0
e 112 41 35.0
e 112 106 46.0
e 112 201 25.0
e 112 5 41.0
e 112 179 18.0
e 112 32 49.0
e 112 150 19.0
e 112 63 36.0
e 113 130 1.0
e 113 15 47.0
e 113 177 1.0
e 113 193 1.0
e 113 276 1.0
e 113 32 1.0
e 113 185 1.0
e 113 283 1.0
e 114 218 1.0
e 114 26 1.0
e 114 96 1.0
e 114 140 1.0
e 114 288 1.0
e 114 119 1.0
e 114 147 31.0
e 114 108 1.0
e 115 211 1.0
e 115 161 1.0
e 115 80 13.0
e 115 116 1.0
e 115 299 2.0
e 115 286 2.0
e 115 249 46.0
e 115 150 1.0
e 116 236 4.0
e 116 120 1.0
e 116 148 1.0
e 116 93 28.0
e 116 227 36.0
e 116 304 1.0
e 116 181 1.0
e 116 317 1.0
e 117 308 33.0
e 117 256 2.0
e 117 163 1.0
e 117 244 1.0
e 117 34 2.0
e 117 212 1.0
e 117 207 1.0
e 117 220 31.0
e 118 105 2.0
e 118 65 1.0
e 118 104 1.0
e 118 175 2.0
e 118 232 3.0
e 118 51 1.0
e 118 225 1.0
e 118 164 3.0
e 119 251 33.0
e 119 221 1.0
e 119 308 34.0
e 119 75 1.0
e 119 310 4.0
e 119 232 26.0
e 119 133 1.0
e 119 9 1.0
e 120 125 32.0
e 120 188 1.0
e 120 211 1.0
e 120 15 13.0
e 120 66 1.0
e 120 46 2.0
e 120 192 1.0
e 120 146 2.0
e 121 201 3.0
e 121 46 1.0
e 121 191 1.0
e 121 30 2.0
e 121 39 1.0
e 121 307 3.0
e 121 125 1.0
e 121 124 1.0
e 122 81 1.0
e 122 257 2.0
e 122 167 1.0
e 122 215 1.0
e 122 220 42.0
e 122 292 21.0
e 122 304 1.0
e 123 270 1.0
e 123 38 1.0
e 123 6 2.0
e 123 196 45.0
e 123 72 1.0
e 123 44 1.0
e 123 158 13.0
e 123 312 1.0
e 124 174 2.0
e 124 67 1.0
e 124 19 1.0
e 124 63 1.0
e 124 113 2.0
e 124 94 1.0
e 124 303 1.0
e 124 118 1.0
e 125 167 8.0
e 125 53 20.0
e 125 247 13.0
e 125 230 4.0
e 125 22 4.0
e 125 204 46.0
e 125 219 45.0
e 126 71 1.0
e 126 258 1.0
e 126 119 1.0
e 126 137 2.0
e 126 265 1.0
e 126 264 1.0
e 126 92 1.0
e 126 197 1.0
e 127 43 1.0
e 127 139 2.0
e 127 273 2.0
e 127 222 1.0
e 127 288 2.0
e 127 32 1.0
e 127 2 2.0
e 127 255 1.0
e 128 3 2.0
e 128 154 2.0
e 128 269 3.0
e 128 87 1.0
e 128 71 1.0
e 128 74 1.0
e 128 243 2.0
e 128 79 2.0
e 129 54 1.0
e 129 57 1.0
e 129 37 1.0
e 129 18 1.0
e 129 125 43.0
e 129 177 1.0
e 129 150 1.0
e 129 271 1.0
e 130 299 1.0
e 130 266 1.0
e 130 318 1.0
e 130 197 1.0
e 130 198 2.0
e 130 271 1.0
e 130 90 1.0
e 130 54 1.0
e 131 234 1.0
e 131 241 1.0
e 131 170 1.0
e 131 99 1.0
e 131 97 1.0
e 131 13 44.0
e 131 20 1.0
e 132 272 1.0
e 132 119 1.0
e 132 65 1.0
e 132 184 2.0
e 132 71 1.0
e 132 296 1.0
e 132 5 1.0
e 132 194 1.0
e 133 113 1.0
e 133 31 1.0
e 133 153 1.0
e 133 33 2.0
e 133 169 1.0
e 133 32 1.0
e 133 297 2.0
e 133 221 3.0
e 134 152 3.0
e 134 269 1.0
e 134 25 2.0
e 134 303 1.0
e 134 136 1.0
e 134 9 1.0
e 134 131 1.0
e 134 302 1.0
e 135 227 18.0
e 135 32 1.0
e 135 279 1.0
e 135 184 2.0
e 135 207 1.0
e 135 318 1.0
e 135 312 1.0
e 135 248 1.0
e 136 93 39.0
e 136 298 1.0
e 136 289 1.0
e 136 294 1.0
e 136 34 1.0
e 136 44 1.0
e 136 111 1.0
e 137 218 24.0
e 137 234 33.0
e 137 59 38.0
e 137 157 14.0
e 137 127 31.0
e 137 75 16.0
e 137 275 15.0
e 137 162 37.0
e 138 12 1.0
e 138 97 1.0
e 138 225 1.0
e 138 242 1.0
e 138 287 1.0
e 138 227 11.0
e 138 220 32.0
e 138 61 1.0
e 139 0 2.0
e 139 146 1.0
e 139 56 1.0
e 139 217 1.0
e 139 26 1.0
e 139 246 2.0
e 139 42 2.0
e 139 187 1.0
e 140 294 1.0
e 140 127 2.0
e 140 200 2.0
e 140 208 1.0
e 140 270 1.0
e 140 50 1.0
e 140 277 1.0
e 140 120 1.0
e 141 214 1.0
e 141 79 1.0
e 141 81 2.0
e 141 272 1.0
e 141 77 1.0
e 141 121 1.0
e 141 291 1.0
e 141 189 1.0
e 142 275 1.0
e 142 125 46.0
e 142 108 1.0
e 142 251 20.0
e 142 232 20.0
e 142 301 2.0
e 142 303 1.0
e 142 47 1.0
e 143 219 1.0
e 143 19 1.0
e 143 155 18.0
e 143 264 2.0
e 143 67 1.0
e 143 193 1.0
e 143 136 1.0
e 143 63 1.0
e 144 97 2.0
e 144 199 2.0
e 144 78 2.0
e 144 181 1.0
e 144 297 1.0
e 144 99 2.0
e 144 275 1.0
e 144 293 1.0
e 145 182 26.0
e 145 65 1.0
e 145 278 1.0
e 145 147 45.0
e 145 137 9.0
e 145 204 1.0
e 145 298 1.0
e 145 133 1.0
e 146 153 2.0
e 146 232 13.0
e 146 66 3.0
e 146 63 1.0
e 146 183 2.0
e 146 143 1.0
e 146 263 1.0
e 147 303 4.0
e 147 188 8.0
e 147 259 25.0
e 147 100 16.0
e 147 159 11.0
e 147 306 26.0
e 147 170 20.0
e 147 99 18.0
e 148 153 1.0
e 148 288 1.0
e 148 95 48.0
e 148 54 1.0
e 148 271 1.0
e 148 71 1.0
e 148 97 1.0
e 148 162 1.0
e 149 121 2.0
e 149 80 6.0
e 149 107 1.0
e 149 255 1.0
e 149 205 42.0
e 149 192 1.0
e 149 27 1.0
e 149 254 6.0
e 150 138 1.0
e 150 4 1.0
e 150 165 31.0
e 150 110 1.0
e 150 59 1.0
e 150 224 19.0
e 150 174 1.0
e 150 45 2.0
e 151 68 1.0
e 151 67 1.0
e 151 229 1.0
e 151 256 1.0
e 151 244 1.0
e 151 201 1.0
e 151 259 1.0
e 151 190 1.0
e 152 128 2.0
e 152 197 1.0
e 152 129 1.0
e 152 13 26.0
e 152 147 36.0
e 152 314 1.0
e 152 86 1.0
e 152 174 1.0
e 153 268 1.0
e 153 109 1.0
e 153 308 15.0
e 153 215 1.0
e 153 242 1.0
e 153 239 1.0
e 153 113 2.0
e 153 58 1.0
e 154 245 11.0
e 154 177 2.0
e 154 99 1.0
e 154 316 1.0
e 154 282 1.0
e 154 310 38.0
e 154 168 10.0
e 154 136 1.0
e 155 311 8.0
e 155 33 21.0
e 155 94 30.0
e 155 272 10.0
e 155 260 6.0
e 155 116 1.0
e 155 123 19.0
e 155 24 5.0
e 156 26 1.0
e 156 157 21.0
e 156 47 1.0
e 156 92 1.0
e 156 218 1.0
e 156 177 1.0
e 156 286 2.0
e 156 193 1.0
e 157 80 33.0
e 157 102 25.0
e 157 148 4.0
e 157 227 19.0
e 157 106 41.0
e 157 189 10.0
e 157 11 43.0
e 157 220 8.0
e 158 22 3.0
e 158 7 4.0
e 158 70 26.0
e 158 294 35.0
e 158 74 26.0
e 158 82 47.0
e 158 87 38.0
e 158 86 47.0
e 159 292 43.0
e 159 176 37.0
e 159 235 32.0
e 159 144 17.0
e 159 299 32.0
e 159 297 2.0
e 159 263 39.0
e 159 66 13.0
e 160 57 1.0
e 160 247 1.0
e 160 37 1.0
e 160 211 1.0
e 160 131 1.0
e 160 226 2.0
e 160 191 1.0
e 160 138 1.0
e 161 232 11.0
e 161 302 1.0
e 161 250 1.0
e 161 157 28.0
e 161 214 1.0
e 161 4 1.0
e 161 191 2.0
e 161 113 3.0
e 162 188 1.0
e 162 53 1.0
e 162 92 1.0
e 162 206 1.0
e 162 237 20.0
e 162 317 1.0
e 162 202 2.0
e 162 177 1.0
e 163 300 1.0
e 163 115 1.0
e 163 174 1.0
e 163 10 1.0
e 163 87 1.0
e 163 264 1.0
e 163 11 1.0
e 163 113 2.0
e 164 46 1.0
e 164 10 1.0
e 164 66 1.0
e 164 277 1.0
e 164 119 1.0
e 164 207 1.0
e 164 221 1.0
e 164 148 1.0
e 165 270 21.0
e 165 227 11.0
e 165 311 33.0
e 165 185 45.0
e 165 17 23.0
e 165 112 19.0
e 165 35 42.0
e 165 65 26.0
e 166 211 1.0
e 166 259 1.0
e 166 13 35.0
e 166 221 1.0
e 166 251 5.0
e 166 274 3.0
e 166 4 1.0
e 166 136 1.0
e 167 144 2.0
e 167 262 1.0
e 167 130 1.0
e 167 69 47.0
e 167 244 1.0
e 167 234 1.0
e 167 129 1.0
e 167 280 2.0
e 168 164 14.0
e 168 21 4.0
e 168 98 42.0
e 168 35 5.0
e 168 46 40.0
e 168 89 22.0
e 168 294 12.0
e 168 179 44.0
e 169 113 1.0
e 169 157 2.0
e 169 265 1.0
e 169 89 2.0
e 169 149 2.0
e 169 207 2.0
e 169 132 1.0
e 169 127 2.0
e 170 134 1.0
e 170 290 31.0
e 170 165 3.0
e 170 238 1.0
e 170 138 1.0
e 170 113 1.0
e 170 293 1.0
e 170 265 1.0
e 171 87 18.0
e 171 205 10.0
e 171 47 12.0
e 171 228 8.0
e 171 207 8.0
e 171 285 19.0
e 171 310 7.0
e 172 293 33.0
e 172 153 31.0
e 172 40 47.0
e 172 248 5.0
e 172 94 18.0
e 172 7 34.0
e 172 5 47.0
e 172 139 12.0
e 173 299 1.0
e 173 4 1.0
e 173 306 1.0
e 173 192 1.0
e 173 117 2.0
e 173 225 1.0
e 173 97 1.0
e 173 134 1.0
e 174 275 1.0
e 174 312 1.0
e 174 1 1.0
e 174 186 1.0
e 174 14 1.0
e 174 253 1.0
e 174 207 1.0
e 174 256 1.0
e 175 256 2.0
e 175 56 1.0
e 175 130 1.0
e 175 202 1.0
e 175 177 2.0
e 175 293 1.0
e 176 0 1.0
e 176 72 1.0
e 176 67 1.0
e 176 178 1.0
e 176 63 2.0
e 176 218 1.0
e 176 98 1.0
e 176 37 1.0
e 177 244 2.0
e 177 153 2.0
e 177 263 1.0
e 177 282 1.0
e 177 50 2.0
e 177 185 2.0
e 177 308 21.0
e 177 115 1.0
e 178 243 1.0
e 178 223 1.0
e 178 258 1.0
e 178 304 1.0
e 178 250 1.0
e 178 119 1.0
e 178 3 1.0
e 178 124 1.0
e 179 236 7.0
e 179 44 1.0
e 179 274 1.0
e 179 235 1.0
e 179 80 9.0
e 179 107 1.0
e 179 66 1.0
e 179 204 1.0
e 180 147 19.0
e 180 80 47.0
e 180 206 1.0
e 180 30 1.0
e 180 122 1.0
e 180 316 1.0
e 180 197 1.0
e 181 82 1.0
e 181 211 1.0
e 181 309 1.0
e 181 303 1.0
e 181 22 1.0
e 181 190 1.0
e 181 13 30.0
e 181 200 1.0
e 182 303 30.0
e 182 75 12.0
e 182 310 36.0
e 182 284 46.0
e 182 124 8.0
e 182 153 42.0
e 182 10 43.0
e 183 104 1.0
e 183 314 1.0
e 183 248 1.0
e 183 103 1.0
e 183 171 38.0
e 183 296 1.0
e 183 292 39.0
e 184 6 2.0
e 184 138 2.0
e 184 196 43.0
e 184 123 2.0
e 184 61 2.0
e 184 252 1.0
e 184 102 1.0
e 184 103 2.0
e 185 189 1.0
e 185 72 1.0
e 185 50 3.0
e 185 93 15.0
e 185 24 1.0
e 185 34 1.0
e 185 302 1.0
e 185 218 1.0
e 186 253 1.0
e 186 125 1.0
e 186 191 2.0
e 186 158 2.0
e 186 167 1.0
e 186 42 1.0
e 186 28 1.0
e 186 74 2.0
e 187 76 41.0
e 187 247 1.0
e 187 181 1.0
e 187 148 1.0
e 187 277 1.0
e 187 122 1.0
e 187 310 22.0
e 187 288 1.0
e 188 275 2.0
e 188 199 1.0
e 188 79 1.0
e 188 239 1.0
e 188 190 1.0
e 188 78 1.0
e 188 300 1.0
e 188 184 1.0
e 189 246 1.0
e 189 228 1.0
e 189 13 11.0
e 189 30 2.0
e 189 46 1.0
e 189 137 12.0
e 189 283 2.0
e 189 98 1.0
e 190 110 1.0
e 190 60 3.0
e 190 174 1.0
e 190 195 1.0
e 190 9 1.0
e 190 302 1.0
e 190 18 1.0
e 190 3 1.0
e 191 309 1.0
e 191 117 1.0
e 191 292 18.0
e 191 271 1.0
e 191 30 1.0
e 191 202 2.0
e 191 255 2.0
e 191 233 1.0
e 192 313 1.0
e 192 202 2.0
e 192 238 1.0
e 192 155 35.0
e 192 121 2.0
e 192 239 1.0
e 192 126 1.0
e 192 95 6.0
e 193 127 2.0
e 193 294 1.0
e 193 22 1.0
e 193 82 2.0
e 193 302 1.0
e 193 280 1.0
e 193 12 2.0
e 193 260 1.0
e 194 14 1.0
e 194 285 1.0
e 194 5 1.0
e 194 149 1.0
e 194 152 1.0
e 194 1 1.0
e 194 158 16.0
e 194 0 1.0
e 195 263 1.0
e 195 133 1.0
e 195 106 1.0
e 195 213 1.0
e 195 290 17.0
e 195 227 2.0
e 195 0 1.0
e 195 111 1.0
e 196 111 49.0
e 196 134 5.0
e 196 44 10.0
e 196 262 32.0
e 196 213 5.0
e 196 155 21.0
e 197 31 1.0
e 197 53 1.0
e 197 87 1.0
e 197 109 2.0
e 197 69 35.0
e 197 208 1.0
e 197 157 13.0
e 197 32 1.0
e 198 28 3.0
e 198 43 1.0
e 198 256 1.0
e 198 175 1.0
e 198 92 1.0
e 198 278 2.0
e 198 69 30.0
e 198 313 1.0
e 199 39 1.0
e 199 120 1.0
e 199 305 1.0
e 199 239 1.0
e 199 151 1.0
e 199 317 1.0
e 199 172 32.0
e 199 28 1.0
e 200 169 1.0
e 200 242 1.0
e 200 5 1.0
e 200 248 1.0
e 200 11 1.0
e 200 302 2.0
e 200 48 1.0
e 201 69 48.0
e 201 300 1.0
e 201 316 1.0
e 201 140 1.0
e 201 55 1.0
e 201 245 43.0
e 201 106 1.0
e 201 243 1.0
e 202 108 1.0
e 202 278 1.0
e 202 179 1.0
e 202 310 14.0
e 202 22 1.0
e 202 39 2.0
e 202 77 2.0
e 202 118 1.0
e 203 315 1.0
e 203 100 1.0
e 203 3 1.0
e 203 230 1.0
e 203 119 1.0
e 203 222 1.0
e 203 276 1.0
e 203 275 1.0
e 204 150 1.0
e 204 50 2.0
e 204 86 1.0
e 204 71 1.0
e 204 46 1.0
e 204 103 1.0
e 204 242 1.0
e 204 249 40.0
e 205 176 1.0
e 205 72 24.0
e 205 223 46.0
e 205 105 42.0
e 205 102 21.0
e 205 293 49.0
e 205 43 33.0
e 205 87 41.0
e 206 184 1.0
e 206 12 1.0
e 206 181 1.0
e 206 74 2.0
e 206 89 1.0
e 206 139 2.0
e 206 241 1.0
e 206 278 1.0
e 207 115 1.0
e 207 15 35.0
e 207 90 1.0
e 207 55 1.0
e 207 244 1.0
e 207 196 9.0
e 207 72 1.0
e 207 126 1.0
e 208 108 1.0
e 208 282 1.0
e 208 27 1.0
e 208 96 1.0
e 208 260 2.0
e 208 86 1.0
e 208 288 1.0
e 208 114 1.0
e 209 119 1.0
e 209 228 1.0
e 209 283 1.0
e 209 282 1.0
e 209 213 1.0
e 209 212 1.0
e 209 208 1.0
e 209 293 1.0
e 210 93 11.0
e 210 126 1.0
e 210 116 1.0
e 210 76 7.0
e 210 19 1.0
e 210 18 1.0
e 210 147 48.0
e 210 4 1.0
e 211 180 1.0
e 211 251 39.0
e 211 144 1.0
e 211 216 1.0
e 211 46 1.0
e 211 138 1.0
e 211 49 1.0
e 211 19 1.0
e 212 189 1.0
e 212 287 1.0
e 212 313 1.0
e 212 101 1.0
e 212 191 1.0
e 212 294 1.0
e 212 90 1.0
e 212 144 3.0
e 213 129 1.0
e 213 157 16.0
e 213 223 1.0
e 213 27 1.0
e 213 177 1.0
e 213 66 1.0
e 213 158 11.0
e 213 163 1.0
e 214 158 13.0
e 214 140 1.0
e 214 171 43.0
e 214 179 1.0
e 214 73 1.0
e 214 243 1.0
e 214 208 1.0
e 214 71 1.0
e 215 251 44.0
e 215 24 1.0
e 215 263 1.0
e 215 2 1.0
e 215 125 1.0
e 215 290 42.0
e 215 283 1.0
e 215 151 1.0
e 216 142 2.0
e 216 90 1.0
e 216 245 25.0
e 216 303 1.0
e 216 315 1.0
e 216 271 1.0
e 216 259 2.0
e 216 284 2.0
e 217 277 1.0
e 217 172 7.0
e 217 158 13.0
e 217 213 1.0
e 217 216 2.0
e 217 171 15.0
e 217 248 1.0
e 218 126 1.0
e 218 252 1.0
e 218 9 1.0
e 218 83 1.0
e 218 265 1.0
e 218 148 1.0
e 218 25 1.0
e 218 38 2.0
e 219 152 1.0
e 219 66 1.0
e 219 200 1.0
e 219 72 1.0
e 219 157 31.0
e 219 90 1.0
e 219 182 17.0
e 219 311 1.0
e 220 47 42.0
e 220 273 31.0
e 220 284 46.0
e 220 12 37.0
e 220 289 45.0
e 220 307 43.0
e 220 133 38.0
e 220 181 36.0
e 221 124 2.0
e 221 16 1.0
e 221 10 1.0
e 221 315 2.0
e 221 211 1.0
e 221 253 1.0
e 221 218 1.0
e 221 298 1.0
e 222 235 1.0
e 222 101 1.0
e 222 314 1.0
e 222 68 1.0
e 222 136 1.0
e 222 237 26.0
e 222 168 28.0
e 222 213 1.0
e 223 189 1.0
e 223 217 1.0
e 223 186 1.0
e 223 158 32.0
e 223 172 43.0
e 223 134 3.0
e 223 181 1.0
e 223 71 1.0
e 224 128 7.0
e 224 190 46.0
e 224 231 21.0
e 224 92 5.0
e 224 164 26.0
e 224 295 30.0
e 224 250 4.0
e 224 10 42.0
e 225 90 2.0
e 225 29 1.0
e 225 172 25.0
e 225 259 2.0
e 225 116 2.0
e 225 97 1.0
e 225 283 1.0
e 225 120 1.0
e 226 246 2.0
e 226 16 1.0
e 226 135 1.0
e 226 211 1.0
e 226 196 36.0
e 226 37 1.0
e 226 283 2.0
e 226 261 1.0
e 227 156 35.0
e 227 101 20.0
e 227 104 16.0
e 227 54 42.0
e 227 307 34.0
e 227 214 43.0
e 227 11 35.0
e 227 44 21.0
e 228 115 1.0
e 228 156 1.0
e 228 177 1.0
e 228 30 1.0
e 228 15 6.0
e 228 285 1.0
e 228 11 1.0
e 228 51 1.0
e 229 45 1.0
e 229 30 1.0
e 229 110 1.0
e 229 54 2.0
e 229 269 1.0
e 229 58 1.0
e 229 211 2.0
e 230 256 1.0
e 230 199 1.0
e 230 49 1.0
e 230 291 1.0
e 230 68 1.0
e 230 129 1.0
e 230 18 3.0
e 230 185 1.0
e 231 279 1.0
e 231 101 1.0
e 231 192 1.0
e 231 276 1.0
e 231 39 1.0
e 231 254 14.0
e 231 182 45.0
e 231 76 34.0
e 232 246 8.0
e 232 289 35.0
e 232 187 7.0
e 232 3 26.0
e 232 18 41.0
e 232 250 45.0
e 232 275 39.0
e 232 29 37.0
e 233 224 49.0
e 233 287 1.0
e 233 19 1.0
e 233 204 1.0
e 233 229 2.0
e 233 216 2.0
e 233 239 1.0
e 233 249 18.0
e 234 154 1.0
e 234 155 41.0
e 234 106 1.0
e 234 165 15.0
e 234 262 1.0
e 234 56 1.0
e 234 173 2.0
e 234 34 1.0
e 235 283 1.0
e 235 31 2.0
e 235 214 2.0
e 235 33 2.0
e 235 288 1.0
e 235 270 2.0
e 235 73 3.0
e 235 253 1.0
e 236 211 18.0
e 236 97 46.0
e 236 27 14.0
e 236 223 16.0
e 236 96 37.0
e 236 251 29.0
e 236 93 28.0
e 236 199 44.0
e 237 242 41.0
e 237 37 37.0
e 237 167 28.0
e 237 262 6.0
e 237 194 42.0
e 237 25 7.0
e 237 8 33.0
e 237 23 33.0
e 238 67 1.0
e 238 27 1.0
e 238 44 1.0
e 238 136 1.0
e 238 106 1.0
e 238 3 1.0
e 238 130 1.0
e 238 177 1.0
e 239 3 1.0
e 239 304 1.0
e 239 276 1.0
e 239 11 1.0
e 239 75 1.0
e 239 142 1.0
e 239 61 1.0
e 239 5 1.0
e 240 251 38.0
e 240 273 36.0
e 240 190 2.0
e 240 315 12.0
e 240 45 29.0
e 240 210 30.0
e 240 297 35.0
e 240 94 47.0
e 241 210 1.0
e 241 238 1.0
e 241 129 1.0
e 241 183 1.0
e 241 69 16.0
e 241 174 1.0
e 241 308 10.0
e 241 259 1.0
e 242 41 1.0
e 242 280 1.0
e 242 284 1.0
e 242 251 5.0
e 242 54 1.0
e 242 288 1.0
e 242 102 1.0
e 242 61 1.0
e 243 119 1.0
e 243 161 1.0
e 243 251 49.0
e 243 203 1.0
e 243 70 25.0
e 243 270 1.0
e 243 293 1.0
e 243 145 1.0
e 244 219 1.0
e 244 14 2.0
e 244 300 1.0
e 244 188 2.0
e 244 280 1.0
e 244 160 1.0
e 244 298 1.0
e 244 176 1.0
e 245 156 10.0
e 245 79 43.0
e 245 214 17.0
e 245 76 39.0
e 245 50 40.0
e 245 44 10.0
e 245 212 18.0
e 245 2 24.0
e 246 85 2.0
e 246 91 2.0
e 246 126 2.0
e 246 82 2.0
e 246 296 2.0
e 246 317 1.0
e 246 282 1.0
e 246 2 2.0
e 247 90 1.0
e 247 182 16.0
e 247 217 1.0
e 247 122 1.0
e 247 99 1.0
e 247 207 1.0
e 247 14 2.0
e 247 134 1.0
e 248 261 1.0
e 248 131 1.0
e 248 186 1.0
e 248 60 1.0
e 248 140 1.0
e 248 99 1.0
e 248 233 1.0
e 248 209 1.0
e 249 289 27.0
e 249 301 11.0
e 249 15 19.0
e 249 207 34.0
e 249 171 43.0
e 249 314 23.0
e 249 300 25.0
e 249 136 6.0
e 250 55 2.0
e 250 242 1.0
e 250 312 1.0
e 250 190 1.0
e 250 43 1.0
e 250 318 1.0
e 250 314 1.0
e 250 113 1.0
e 251 286 47.0
e 251 62 2.0
e 251 214 11.0
e 251 21 16.0
e 251 274 35.0
e 251 88 13.0
e 251 23 40.0
e 252 122 1.0
e 252 10 1.0
e 252 177 2.0
e 252 98 1.0
e 252 232 23.0
e 252 220 45.0
e 252 69 42.0
e 252 248 1.0
e 253 304 1.0
e 253 182 5.0
e 253 17 1.0
e 253 42 1.0
e 253 228 1.0
e 253 170 1.0
e 253 268 1.0
e 253 155 18.0
e 254 90 43.0
e 254 131 14.0
e 254 218 20.0
e 254 27 10.0
e 254 242 29.0
e 254 72 46.0
e 254 220 39.0
e 255 175 1.0
e 255 154 2.0
e 255 156 1.0
e 255 128 1.0
e 255 33 1.0
e 255 242 2.0
e 255 84 27.0
e 255 81 2.0
e 256 262 1.0
e 256 38 1.0
e 256 75 1.0
e 256 111 1.0
e 256 127 1.0
e 256 19 2.0
e 256 185 2.0
e 257 55 2.0
e 257 136 2.0
e 257 107 1.0
e 257 290 24.0
e 257 142 1.0
e 257 316 2.0
e 257 65 1.0
e 257 110 2.0
e 258 148 1.0
e 258 137 44.0
e 258 235 1.0
e 258 249 48.0
e 258 54 1.0
e 258 206 1.0
e 258 218 1.0
e 259 187 1.0
e 259 299 2.0
e 259 132 1.0
e 259 234 1.0
e 259 242 1.0
e 259 308 31.0
e 259 52 1.0
e 259 89 1.0
e 260 107 1.0
e 260 55 1.0
e 260 106 1.0
e 260 129 1.0
e 260 303 1.0
e 260 27 2.0
e 260 49 2.0
e 260 192 1.0
e 261 144 1.0
e 261 120 1.0
e 261 77 2.0
e 261 163 1.0
e 261 84 8.0
e 261 249 47.0
e 261 228 1.0
e 261 3 1.0
e 262 79 1.0
e 262 32 1.0
e 262 159 11.0
e 262 107 1.0
e 262 304 3.0
e 262 274 1.0
e 262 291 1.0
e 262 139 2.0
e 263 50 2.0
e 263 165 17.0
e 263 121 2.0
e 263 193 2.0
e 263 42 1.0
e 263 238 1.0
e 263 147 20.0
e 263 256 1.0
e 264 276 1.0
e 264 35 1.0
e 264 214 1.0
e 264 152 1.0
e 264 205 23.0
e 264 138 1.0
e 264 53 1.0
e 264 252 1.0
e 265 133 2.0
e 265 151 1.0
e 265 8 1.0
e 265 207 1.0
e 265 192 1.0
e 265 286 2.0
e 265 302 1.0
e 265 98 1.0
e 266 303 1.0
e 266 81 1.0
e 266 119 1.0
e 266 129 1.0
e 266 274 1.0
e 266 305 1.0
e 266 41 1.0
e 266 120 1.0
e 267 68 1.0
e 267 196 26.0
e 267 205 23.0
e 267 220 28.0
e 267 52 1.0
e 267 45 1.0
e 267 10 1.0
e 268 306 1.0
e 268 58 1.0
e 268 192 1.0
e 268 14 1.0
e 268 80 15.0
e 268 78 1.0
e 268 164 1.0
e 268 82 1.0
e 269 116 3.0
e 269 197 1.0
e 269 120 2.0
e 269 16 1.0
e 269 191 2.0
e 269 71 2.0
e 269 165 13.0
e 269 150 1.0
e 270 89 1.0
e 270 66 1.0
e 270 259 1.0
e 270 51 1.0
e 270 196 18.0
e 270 246 1.0
e 270 299 1.0
e 270 19 1.0
e 271 21 1.0
e 271 73 1.0
e 271 104 1.0
e 271 90 1.0
e 271 82 1.0
e 271 168 4.0
e 271 84 41.0
e 271 128 1.0
e 272 234 1.0
e 272 135 1.0
e 272 102 1.0
e 272 9 1.0
e 272 197 1.0
e 272 245 41.0
e 272 30 2.0
e 273 224 22.0
e 273 230 1.0
e 273 109 1.0
e 273 27 1.0
e 273 218 1.0
e 273 57 1.0
e 273 185 1.0
e 273 95 33.0
e 274 306 1.0
e 274 191 1.0
e 274 118 1.0
e 274 174 1.0
e 274 281 1.0
e 274 188 1.0
e 274 85 1.0
e 274 170 1.0
e 275 231 1.0
e 275 102 1.0
e 275 211 1.0
e 275 292 33.0
e 275 209 1.0
e 275 139 1.0
e 275 273 1.0
e 275 293 1.0
e 276 230 1.0
e 276 286 2.0
e 276 100 1.0
e 276 251 20.0
e 276 296 1.0
e 276 223 1.0
e 276 245 2.0
e 277 10 1.0
e 277 244 1.0
e 277 134 1.0
e 277 204 1.0
e 277 123 1.0
e 277 148 1.0
e 277 308 12.0
e 277 274 1.0
e 278 58 2.0
e 278 134 1.0
e 278 270 1.0
e 278 51 1.0
e 278 18 1.0
e 278 86 1.0
e 278 227 34.0
e 278 128 1.0
e 279 139 1.0
e 279 129 2.0
e 279 38 1.0
e 279 239 1.0
e 279 211 2.0
e 279 227 22.0
e 279 39 1.0
e 279 56 1.0
e 280 302 1.0
e 280 56 1.0
e 280 301 1.0
e 280 116 1.0
e 280 284 1.0
e 280 158 18.0
e 280 296 1.0
e 281 87 1.0
e 281 176 1.0
e 281 120 1.0
e 281 126 1.0
e 281 180 1.0
e 281 139 2.0
e 281 19 1.0
e 281 245 18.0
e 282 145 1.0
e 282 204 1.0
e 282 73 1.0
e 282 16 1.0
e 282 28 1.0
e 282 132 1.0
e 282 96 1.0
e 282 83 1.0
e 283 170 2.0
e 283 11 1.0
e 283 270 2.0
e 283 106 1.0
e 283 253 1.0
e 283 232 41.0
e 283 162 1.0
e 284 67 1.0
e 284 260 2.0
e 284 312 1.0
e 284 199 1.0
e 284 300 1.0
e 284 214 1.0
e 284 187 1.0
e 284 105 1.0
e 285 21 1.0
e 285 135 1.0
e 285 289 1.0
e 285 308 16.0
e 285 125 38.0
e 285 85 1.0
e 285 126 1.0
e 286 103 2.0
e 286 311 2.0
e 286 247 1.0
e 286 41 1.0
e 286 11 1.0
e 286 315 1.0
e 286 226 1.0
e 286 261 1.0
e 287 136 1.0
e 287 119 1.0
e 287 228 1.0
e 287 260 2.0
e 287 197 1.0
e 287 192 1.0
e 287 312 1.0
e 288 84 38.0
e 288 154 1.0
e 288 293 1.0
e 288 88 1.0
e 288 92 1.0
e 288 236 46.0
e 288 146 1.0
e 288 97 1.0
e 289 224 24.0
e 289 34 1.0
e 289 31 1.0
e 289 144 2.0
e 289 150 1.0
e 289 241 1.0
e 289 192 1.0
e 289 2 1.0
e 290 186 32.0
e 290 157 21.0
e 290 200 25.0
e 290 148 23.0
e 290 206 6.0
e 290 105 39.0
e 290 67 11.0
e 290 289 26.0
e 291 236 44.0
e 291 302 1.0
e 291 125 30.0
e 291 94 1.0
e 291 92 1.0
e 291 3 1.0
e 291 77 3.0
e 291 280 1.0
e 292 15 27.0
e 292 120 23.0
e 292 119 40.0
e 292 19 8.0
e 292 7 1.0
e 292 0 28.0
e 292 290 37.0
e 292 31 26.0
e 293 294 1.0
e 293 237 15.0
e 293 271 1.0
e 293 74 2.0
e 293 251 24.0
e 293 32 1.0
e 293 11 1.0
e 293 75 1.0
e 294 231 1.0
e 294 236 6.0
e 294 278 1.0
e 294 249 29.0
e 294 97 1.0
e 294 16 1.0
e 294 35 1.0
e 294 181 1.0
e 295 154 1.0
e 295 189 1.0
e 295 293 1.0
e 295 306 1.0
e 295 197 1.0
e 295 125 6.0
e 295 317 1.0
e 295 48 1.0
e 296 19 1.0
e 296 44 1.0
e 296 115 1.0
e 296 10 1.0
e 296 165 1.0
e 296 17 1.0
e 296 157 48.0
e 296 285 1.0
e 297 298 1.0
e 297 90 1.0
e 297 145 1.0
e 297 141 1.0
e 297 252 1.0
e 297 178 1.0
e 297 32 1.0
e 298 154 1.0
e 298 245 3.0
e 298 147 43.0
e 298 75 1.0
e 298 236 46.0
e 298 142 1.0
e 298 158 31.0
e 299 255 1.0
e 299 189 1.0
e 299 17 2.0
e 299 85 1.0
e 299 218 2.0
e 299 37 2.0
e 299 7 1.0
e 299 89 1.0
e 300 184 2.0
e 300 309 1.0
e 300 259 1.0
e 300 179 1.0
e 300 80 40.0
e 300 138 1.0
e 300 257 2.0
e 301 4 2.0
e 301 128 2.0
e 301 136 2.0
e 301 127 1.0
e 301 5 2.0
e 301 204 1.0
e 301 7 1.0
e 301 226 2.0
e 302 112 15.0
e 302 238 1.0
e 302 204 1.0
e 302 148 2.0
e 302 51 2.0
e 302 149 1.0
e 302 39 3.0
e 302 191 1.0
e 303 34 2.0
e 303 94 1.0
e 303 29 1.0
e 303 44 1.0
e 303 222 1.0
e 303 217 1.0
e 303 50 1.0
e 303 246 1.0
e 304 138 1.0
e 304 109 2.0
e 304 66 1.0
e 304 272 1.0
e 304 81 1.0
e 304 36 2.0
e 304 200 1.0
e 304 182 40.0
e 305 203 1.0
e 305 233 3.0
e 305 54 1.0
e 305 208 1.0
e 305 225 1.0
e 305 42 1.0
e 305 79 2.0
e 305 160 1.0
e 306 153 1.0
e 306 246 1.0
e 306 73 1.0
e 306 172 7.0
e 306 28 1.0
e 306 74 1.0
e 306 97 1.0
e 306 201 1.0
e 307 140 1.0
e 307 206 1.0
e 307 40 1.0
e 307 308 48.0
e 307 271 1.0
e 307 74 1.0
e 307 142 1.0
e 308 281 47.0
e 308 98 34.0
e 308 206 20.0
e 308 236 48.0
e 308 21 11.0
e 308 313 35.0
e 308 278 31.0
e 308 56 49.0
e 309 154 1.0
e 309 5 1.0
e 309 193 1.0
e 309 316 1.0
e 309 129 1.0
e 309 143 1.0
e 309 12 1.0
e 309 277 1.0
e 310 168 12.0
e 310 186 15.0
e 310 214 48.0
e 310 161 21.0
e 310 212 10.0
e 310 230 35.0
e 310 87 16.0
e 310 72 44.0
e 311 64 1.0
e 311 268 1.0
e 311 266 1.0
e 311 12 1.0
e 311 267 1.0
e 311 71 1.0
e 311 213 1.0
e 312 176 1.0
e 312 269 1.0
e 312 3 1.0
e 312 276 1.0
e 312 277 1.0
e 312 259 1.0
e 312 57 1.0
e 312 235 2.0
e 313 275 1.0
e 313 281 1.0
e 313 151 1.0
e 313 127 1.0
e 313 215 1.0
e 313 147 44.0
e 313 298 1.0
e 313 91 1.0
e 314 165 7.0
e 314 116 1.0
e 314 282 1.0
e 314 97 1.0
e 314 121 1.0
e 314 169 2.0
e 314 229 2.0
e 314 40 1.0
e 315 183 1.0
e 315 200 2.0
e 315 106 1.0
e 315 129 3.0
e 315 217 1.0
e 315 73 2.0
e 315 209 1.0
e 315 58 2.0
e 316 244 1.0
e 316 291 1.0
e 316 48 1.0
e 316 39 1.0
e 316 191 1.0
e 316 152 1.0
e 316 7 1.0
e 316 275 1.0
e 317 35 1.0
e 317 31 1.0
e 317 115 1.0
e 317 254 1.0
e 317 232 17.0
e 317 172 31.0
e 317 16 1.0
e 318 3 1.0
e 318 230 1.0
e 318 127 1.0
e 318 47 2.0
e 318 290 1.0
e 318 2 2.0
e 318 216 1.0
e 318 307 1.0
e 319 225 2.0
e 319 220 26.0
e 319 70 40.0
e 319 272 1.0
e 319 195 1.0
e 319 148 1.0
e 319 252 1.0
e 319 36 1.0
